certificates/rado_a28_c20_N269.cnf
c Rad2 upper bound instance: x1 + 28*x2 - x3 = 20, interval [1,269]
p cnf 269 2700
1 9 0
-1 -9 0
1 2 37 0
-1 -2 -37 0
1 3 65 0
-1 -3 -65 0
1 4 93 0
-1 -4 -93 0
1 5 121 0
-1 -5 -121 0
1 6 149 0
-1 -6 -149 0
1 7 177 0
-1 -7 -177 0
1 8 205 0
-1 -8 -205 0
1 9 233 0
-1 -9 -233 0
1 10 261 0
-1 -10 -261 0
1 2 10 0
-1 -2 -10 0
2 38 0
-2 -38 0
2 3 66 0
-2 -3 -66 0
2 4 94 0
-2 -4 -94 0
2 5 122 0
-2 -5 -122 0
2 6 150 0
-2 -6 -150 0
2 7 178 0
-2 -7 -178 0
2 8 206 0
-2 -8 -206 0
2 9 234 0
-2 -9 -234 0
2 10 262 0
-2 -10 -262 0
1 3 11 0
-1 -3 -11 0
2 3 39 0
-2 -3 -39 0
3 67 0
-3 -67 0
3 4 95 0
-3 -4 -95 0
3 5 123 0
-3 -5 -123 0
3 6 151 0
-3 -6 -151 0
3 7 179 0
-3 -7 -179 0
3 8 207 0
-3 -8 -207 0
3 9 235 0
-3 -9 -235 0
3 10 263 0
-3 -10 -263 0
1 4 12 0
-1 -4 -12 0
2 4 40 0
-2 -4 -40 0
3 4 68 0
-3 -4 -68 0
4 96 0
-4 -96 0
4 5 124 0
-4 -5 -124 0
4 6 152 0
-4 -6 -152 0
4 7 180 0
-4 -7 -180 0
4 8 208 0
-4 -8 -208 0
4 9 236 0
-4 -9 -236 0
4 10 264 0
-4 -10 -264 0
1 5 13 0
-1 -5 -13 0
2 5 41 0
-2 -5 -41 0
3 5 69 0
-3 -5 -69 0
4 5 97 0
-4 -5 -97 0
5 125 0
-5 -125 0
5 6 153 0
-5 -6 -153 0
5 7 181 0
-5 -7 -181 0
5 8 209 0
-5 -8 -209 0
5 9 237 0
-5 -9 -237 0
5 10 265 0
-5 -10 -265 0
1 6 14 0
-1 -6 -14 0
2 6 42 0
-2 -6 -42 0
3 6 70 0
-3 -6 -70 0
4 6 98 0
-4 -6 -98 0
5 6 126 0
-5 -6 -126 0
6 154 0
-6 -154 0
6 7 182 0
-6 -7 -182 0
6 8 210 0
-6 -8 -210 0
6 9 238 0
-6 -9 -238 0
6 10 266 0
-6 -10 -266 0
1 7 15 0
-1 -7 -15 0
2 7 43 0
-2 -7 -43 0
3 7 71 0
-3 -7 -71 0
4 7 99 0
-4 -7 -99 0
5 7 127 0
-5 -7 -127 0
6 7 155 0
-6 -7 -155 0
7 183 0
-7 -183 0
7 8 211 0
-7 -8 -211 0
7 9 239 0
-7 -9 -239 0
7 10 267 0
-7 -10 -267 0
1 8 16 0
-1 -8 -16 0
2 8 44 0
-2 -8 -44 0
3 8 72 0
-3 -8 -72 0
4 8 100 0
-4 -8 -100 0
5 8 128 0
-5 -8 -128 0
6 8 156 0
-6 -8 -156 0
7 8 184 0
-7 -8 -184 0
8 212 0
-8 -212 0
8 9 240 0
-8 -9 -240 0
8 10 268 0
-8 -10 -268 0
1 9 17 0
-1 -9 -17 0
2 9 45 0
-2 -9 -45 0
3 9 73 0
-3 -9 -73 0
4 9 101 0
-4 -9 -101 0
5 9 129 0
-5 -9 -129 0
6 9 157 0
-6 -9 -157 0
7 9 185 0
-7 -9 -185 0
8 9 213 0
-8 -9 -213 0
9 241 0
-9 -241 0
9 10 269 0
-9 -10 -269 0
1 10 18 0
-1 -10 -18 0
2 10 46 0
-2 -10 -46 0
3 10 74 0
-3 -10 -74 0
4 10 102 0
-4 -10 -102 0
5 10 130 0
-5 -10 -130 0
6 10 158 0
-6 -10 -158 0
7 10 186 0
-7 -10 -186 0
8 10 214 0
-8 -10 -214 0
9 10 242 0
-9 -10 -242 0
1 11 19 0
-1 -11 -19 0
2 11 47 0
-2 -11 -47 0
3 11 75 0
-3 -11 -75 0
4 11 103 0
-4 -11 -103 0
5 11 131 0
-5 -11 -131 0
6 11 159 0
-6 -11 -159 0
7 11 187 0
-7 -11 -187 0
8 11 215 0
-8 -11 -215 0
9 11 243 0
-9 -11 -243 0
1 12 20 0
-1 -12 -20 0
2 12 48 0
-2 -12 -48 0
3 12 76 0
-3 -12 -76 0
4 12 104 0
-4 -12 -104 0
5 12 132 0
-5 -12 -132 0
6 12 160 0
-6 -12 -160 0
7 12 188 0
-7 -12 -188 0
8 12 216 0
-8 -12 -216 0
9 12 244 0
-9 -12 -244 0
1 13 21 0
-1 -13 -21 0
2 13 49 0
-2 -13 -49 0
3 13 77 0
-3 -13 -77 0
4 13 105 0
-4 -13 -105 0
5 13 133 0
-5 -13 -133 0
6 13 161 0
-6 -13 -161 0
7 13 189 0
-7 -13 -189 0
8 13 217 0
-8 -13 -217 0
9 13 245 0
-9 -13 -245 0
1 14 22 0
-1 -14 -22 0
2 14 50 0
-2 -14 -50 0
3 14 78 0
-3 -14 -78 0
4 14 106 0
-4 -14 -106 0
5 14 134 0
-5 -14 -134 0
6 14 162 0
-6 -14 -162 0
7 14 190 0
-7 -14 -190 0
8 14 218 0
-8 -14 -218 0
9 14 246 0
-9 -14 -246 0
1 15 23 0
-1 -15 -23 0
2 15 51 0
-2 -15 -51 0
3 15 79 0
-3 -15 -79 0
4 15 107 0
-4 -15 -107 0
5 15 135 0
-5 -15 -135 0
6 15 163 0
-6 -15 -163 0
7 15 191 0
-7 -15 -191 0
8 15 219 0
-8 -15 -219 0
9 15 247 0
-9 -15 -247 0
1 16 24 0
-1 -16 -24 0
2 16 52 0
-2 -16 -52 0
3 16 80 0
-3 -16 -80 0
4 16 108 0
-4 -16 -108 0
5 16 136 0
-5 -16 -136 0
6 16 164 0
-6 -16 -164 0
7 16 192 0
-7 -16 -192 0
8 16 220 0
-8 -16 -220 0
9 16 248 0
-9 -16 -248 0
1 17 25 0
-1 -17 -25 0
2 17 53 0
-2 -17 -53 0
3 17 81 0
-3 -17 -81 0
4 17 109 0
-4 -17 -109 0
5 17 137 0
-5 -17 -137 0
6 17 165 0
-6 -17 -165 0
7 17 193 0
-7 -17 -193 0
8 17 221 0
-8 -17 -221 0
9 17 249 0
-9 -17 -249 0
1 18 26 0
-1 -18 -26 0
2 18 54 0
-2 -18 -54 0
3 18 82 0
-3 -18 -82 0
4 18 110 0
-4 -18 -110 0
5 18 138 0
-5 -18 -138 0
6 18 166 0
-6 -18 -166 0
7 18 194 0
-7 -18 -194 0
8 18 222 0
-8 -18 -222 0
9 18 250 0
-9 -18 -250 0
1 19 27 0
-1 -19 -27 0
2 19 55 0
-2 -19 -55 0
3 19 83 0
-3 -19 -83 0
4 19 111 0
-4 -19 -111 0
5 19 139 0
-5 -19 -139 0
6 19 167 0
-6 -19 -167 0
7 19 195 0
-7 -19 -195 0
8 19 223 0
-8 -19 -223 0
9 19 251 0
-9 -19 -251 0
1 20 28 0
-1 -20 -28 0
2 20 56 0
-2 -20 -56 0
3 20 84 0
-3 -20 -84 0
4 20 112 0
-4 -20 -112 0
5 20 140 0
-5 -20 -140 0
6 20 168 0
-6 -20 -168 0
7 20 196 0
-7 -20 -196 0
8 20 224 0
-8 -20 -224 0
9 20 252 0
-9 -20 -252 0
1 21 29 0
-1 -21 -29 0
2 21 57 0
-2 -21 -57 0
3 21 85 0
-3 -21 -85 0
4 21 113 0
-4 -21 -113 0
5 21 141 0
-5 -21 -141 0
6 21 169 0
-6 -21 -169 0
7 21 197 0
-7 -21 -197 0
8 21 225 0
-8 -21 -225 0
9 21 253 0
-9 -21 -253 0
1 22 30 0
-1 -22 -30 0
2 22 58 0
-2 -22 -58 0
3 22 86 0
-3 -22 -86 0
4 22 114 0
-4 -22 -114 0
5 22 142 0
-5 -22 -142 0
6 22 170 0
-6 -22 -170 0
7 22 198 0
-7 -22 -198 0
8 22 226 0
-8 -22 -226 0
9 22 254 0
-9 -22 -254 0
1 23 31 0
-1 -23 -31 0
2 23 59 0
-2 -23 -59 0
3 23 87 0
-3 -23 -87 0
4 23 115 0
-4 -23 -115 0
5 23 143 0
-5 -23 -143 0
6 23 171 0
-6 -23 -171 0
7 23 199 0
-7 -23 -199 0
8 23 227 0
-8 -23 -227 0
9 23 255 0
-9 -23 -255 0
1 24 32 0
-1 -24 -32 0
2 24 60 0
-2 -24 -60 0
3 24 88 0
-3 -24 -88 0
4 24 116 0
-4 -24 -116 0
5 24 144 0
-5 -24 -144 0
6 24 172 0
-6 -24 -172 0
7 24 200 0
-7 -24 -200 0
8 24 228 0
-8 -24 -228 0
9 24 256 0
-9 -24 -256 0
1 25 33 0
-1 -25 -33 0
2 25 61 0
-2 -25 -61 0
3 25 89 0
-3 -25 -89 0
4 25 117 0
-4 -25 -117 0
5 25 145 0
-5 -25 -145 0
6 25 173 0
-6 -25 -173 0
7 25 201 0
-7 -25 -201 0
8 25 229 0
-8 -25 -229 0
9 25 257 0
-9 -25 -257 0
1 26 34 0
-1 -26 -34 0
2 26 62 0
-2 -26 -62 0
3 26 90 0
-3 -26 -90 0
4 26 118 0
-4 -26 -118 0
5 26 146 0
-5 -26 -146 0
6 26 174 0
-6 -26 -174 0
7 26 202 0
-7 -26 -202 0
8 26 230 0
-8 -26 -230 0
9 26 258 0
-9 -26 -258 0
1 27 35 0
-1 -27 -35 0
2 27 63 0
-2 -27 -63 0
3 27 91 0
-3 -27 -91 0
4 27 119 0
-4 -27 -119 0
5 27 147 0
-5 -27 -147 0
6 27 175 0
-6 -27 -175 0
7 27 203 0
-7 -27 -203 0
8 27 231 0
-8 -27 -231 0
9 27 259 0
-9 -27 -259 0
1 28 36 0
-1 -28 -36 0
2 28 64 0
-2 -28 -64 0
3 28 92 0
-3 -28 -92 0
4 28 120 0
-4 -28 -120 0
5 28 148 0
-5 -28 -148 0
6 28 176 0
-6 -28 -176 0
7 28 204 0
-7 -28 -204 0
8 28 232 0
-8 -28 -232 0
9 28 260 0
-9 -28 -260 0
1 29 37 0
-1 -29 -37 0
2 29 65 0
-2 -29 -65 0
3 29 93 0
-3 -29 -93 0
4 29 121 0
-4 -29 -121 0
5 29 149 0
-5 -29 -149 0
6 29 177 0
-6 -29 -177 0
7 29 205 0
-7 -29 -205 0
8 29 233 0
-8 -29 -233 0
9 29 261 0
-9 -29 -261 0
1 30 38 0
-1 -30 -38 0
2 30 66 0
-2 -30 -66 0
3 30 94 0
-3 -30 -94 0
4 30 122 0
-4 -30 -122 0
5 30 150 0
-5 -30 -150 0
6 30 178 0
-6 -30 -178 0
7 30 206 0
-7 -30 -206 0
8 30 234 0
-8 -30 -234 0
9 30 262 0
-9 -30 -262 0
1 31 39 0
-1 -31 -39 0
2 31 67 0
-2 -31 -67 0
3 31 95 0
-3 -31 -95 0
4 31 123 0
-4 -31 -123 0
5 31 151 0
-5 -31 -151 0
6 31 179 0
-6 -31 -179 0
7 31 207 0
-7 -31 -207 0
8 31 235 0
-8 -31 -235 0
9 31 263 0
-9 -31 -263 0
1 32 40 0
-1 -32 -40 0
2 32 68 0
-2 -32 -68 0
3 32 96 0
-3 -32 -96 0
4 32 124 0
-4 -32 -124 0
5 32 152 0
-5 -32 -152 0
6 32 180 0
-6 -32 -180 0
7 32 208 0
-7 -32 -208 0
8 32 236 0
-8 -32 -236 0
9 32 264 0
-9 -32 -264 0
1 33 41 0
-1 -33 -41 0
2 33 69 0
-2 -33 -69 0
3 33 97 0
-3 -33 -97 0
4 33 125 0
-4 -33 -125 0
5 33 153 0
-5 -33 -153 0
6 33 181 0
-6 -33 -181 0
7 33 209 0
-7 -33 -209 0
8 33 237 0
-8 -33 -237 0
9 33 265 0
-9 -33 -265 0
1 34 42 0
-1 -34 -42 0
2 34 70 0
-2 -34 -70 0
3 34 98 0
-3 -34 -98 0
4 34 126 0
-4 -34 -126 0
5 34 154 0
-5 -34 -154 0
6 34 182 0
-6 -34 -182 0
7 34 210 0
-7 -34 -210 0
8 34 238 0
-8 -34 -238 0
9 34 266 0
-9 -34 -266 0
1 35 43 0
-1 -35 -43 0
2 35 71 0
-2 -35 -71 0
3 35 99 0
-3 -35 -99 0
4 35 127 0
-4 -35 -127 0
5 35 155 0
-5 -35 -155 0
6 35 183 0
-6 -35 -183 0
7 35 211 0
-7 -35 -211 0
8 35 239 0
-8 -35 -239 0
9 35 267 0
-9 -35 -267 0
1 36 44 0
-1 -36 -44 0
2 36 72 0
-2 -36 -72 0
3 36 100 0
-3 -36 -100 0
4 36 128 0
-4 -36 -128 0
5 36 156 0
-5 -36 -156 0
6 36 184 0
-6 -36 -184 0
7 36 212 0
-7 -36 -212 0
8 36 240 0
-8 -36 -240 0
9 36 268 0
-9 -36 -268 0
1 37 45 0
-1 -37 -45 0
2 37 73 0
-2 -37 -73 0
3 37 101 0
-3 -37 -101 0
4 37 129 0
-4 -37 -129 0
5 37 157 0
-5 -37 -157 0
6 37 185 0
-6 -37 -185 0
7 37 213 0
-7 -37 -213 0
8 37 241 0
-8 -37 -241 0
9 37 269 0
-9 -37 -269 0
1 38 46 0
-1 -38 -46 0
2 38 74 0
-2 -38 -74 0
3 38 102 0
-3 -38 -102 0
4 38 130 0
-4 -38 -130 0
5 38 158 0
-5 -38 -158 0
6 38 186 0
-6 -38 -186 0
7 38 214 0
-7 -38 -214 0
8 38 242 0
-8 -38 -242 0
1 39 47 0
-1 -39 -47 0
2 39 75 0
-2 -39 -75 0
3 39 103 0
-3 -39 -103 0
4 39 131 0
-4 -39 -131 0
5 39 159 0
-5 -39 -159 0
6 39 187 0
-6 -39 -187 0
7 39 215 0
-7 -39 -215 0
8 39 243 0
-8 -39 -243 0
1 40 48 0
-1 -40 -48 0
2 40 76 0
-2 -40 -76 0
3 40 104 0
-3 -40 -104 0
4 40 132 0
-4 -40 -132 0
5 40 160 0
-5 -40 -160 0
6 40 188 0
-6 -40 -188 0
7 40 216 0
-7 -40 -216 0
8 40 244 0
-8 -40 -244 0
1 41 49 0
-1 -41 -49 0
2 41 77 0
-2 -41 -77 0
3 41 105 0
-3 -41 -105 0
4 41 133 0
-4 -41 -133 0
5 41 161 0
-5 -41 -161 0
6 41 189 0
-6 -41 -189 0
7 41 217 0
-7 -41 -217 0
8 41 245 0
-8 -41 -245 0
1 42 50 0
-1 -42 -50 0
2 42 78 0
-2 -42 -78 0
3 42 106 0
-3 -42 -106 0
4 42 134 0
-4 -42 -134 0
5 42 162 0
-5 -42 -162 0
6 42 190 0
-6 -42 -190 0
7 42 218 0
-7 -42 -218 0
8 42 246 0
-8 -42 -246 0
1 43 51 0
-1 -43 -51 0
2 43 79 0
-2 -43 -79 0
3 43 107 0
-3 -43 -107 0
4 43 135 0
-4 -43 -135 0
5 43 163 0
-5 -43 -163 0
6 43 191 0
-6 -43 -191 0
7 43 219 0
-7 -43 -219 0
8 43 247 0
-8 -43 -247 0
1 44 52 0
-1 -44 -52 0
2 44 80 0
-2 -44 -80 0
3 44 108 0
-3 -44 -108 0
4 44 136 0
-4 -44 -136 0
5 44 164 0
-5 -44 -164 0
6 44 192 0
-6 -44 -192 0
7 44 220 0
-7 -44 -220 0
8 44 248 0
-8 -44 -248 0
1 45 53 0
-1 -45 -53 0
2 45 81 0
-2 -45 -81 0
3 45 109 0
-3 -45 -109 0
4 45 137 0
-4 -45 -137 0
5 45 165 0
-5 -45 -165 0
6 45 193 0
-6 -45 -193 0
7 45 221 0
-7 -45 -221 0
8 45 249 0
-8 -45 -249 0
1 46 54 0
-1 -46 -54 0
2 46 82 0
-2 -46 -82 0
3 46 110 0
-3 -46 -110 0
4 46 138 0
-4 -46 -138 0
5 46 166 0
-5 -46 -166 0
6 46 194 0
-6 -46 -194 0
7 46 222 0
-7 -46 -222 0
8 46 250 0
-8 -46 -250 0
1 47 55 0
-1 -47 -55 0
2 47 83 0
-2 -47 -83 0
3 47 111 0
-3 -47 -111 0
4 47 139 0
-4 -47 -139 0
5 47 167 0
-5 -47 -167 0
6 47 195 0
-6 -47 -195 0
7 47 223 0
-7 -47 -223 0
8 47 251 0
-8 -47 -251 0
1 48 56 0
-1 -48 -56 0
2 48 84 0
-2 -48 -84 0
3 48 112 0
-3 -48 -112 0
4 48 140 0
-4 -48 -140 0
5 48 168 0
-5 -48 -168 0
6 48 196 0
-6 -48 -196 0
7 48 224 0
-7 -48 -224 0
8 48 252 0
-8 -48 -252 0
1 49 57 0
-1 -49 -57 0
2 49 85 0
-2 -49 -85 0
3 49 113 0
-3 -49 -113 0
4 49 141 0
-4 -49 -141 0
5 49 169 0
-5 -49 -169 0
6 49 197 0
-6 -49 -197 0
7 49 225 0
-7 -49 -225 0
8 49 253 0
-8 -49 -253 0
1 50 58 0
-1 -50 -58 0
2 50 86 0
-2 -50 -86 0
3 50 114 0
-3 -50 -114 0
4 50 142 0
-4 -50 -142 0
5 50 170 0
-5 -50 -170 0
6 50 198 0
-6 -50 -198 0
7 50 226 0
-7 -50 -226 0
8 50 254 0
-8 -50 -254 0
1 51 59 0
-1 -51 -59 0
2 51 87 0
-2 -51 -87 0
3 51 115 0
-3 -51 -115 0
4 51 143 0
-4 -51 -143 0
5 51 171 0
-5 -51 -171 0
6 51 199 0
-6 -51 -199 0
7 51 227 0
-7 -51 -227 0
8 51 255 0
-8 -51 -255 0
1 52 60 0
-1 -52 -60 0
2 52 88 0
-2 -52 -88 0
3 52 116 0
-3 -52 -116 0
4 52 144 0
-4 -52 -144 0
5 52 172 0
-5 -52 -172 0
6 52 200 0
-6 -52 -200 0
7 52 228 0
-7 -52 -228 0
8 52 256 0
-8 -52 -256 0
1 53 61 0
-1 -53 -61 0
2 53 89 0
-2 -53 -89 0
3 53 117 0
-3 -53 -117 0
4 53 145 0
-4 -53 -145 0
5 53 173 0
-5 -53 -173 0
6 53 201 0
-6 -53 -201 0
7 53 229 0
-7 -53 -229 0
8 53 257 0
-8 -53 -257 0
1 54 62 0
-1 -54 -62 0
2 54 90 0
-2 -54 -90 0
3 54 118 0
-3 -54 -118 0
4 54 146 0
-4 -54 -146 0
5 54 174 0
-5 -54 -174 0
6 54 202 0
-6 -54 -202 0
7 54 230 0
-7 -54 -230 0
8 54 258 0
-8 -54 -258 0
1 55 63 0
-1 -55 -63 0
2 55 91 0
-2 -55 -91 0
3 55 119 0
-3 -55 -119 0
4 55 147 0
-4 -55 -147 0
5 55 175 0
-5 -55 -175 0
6 55 203 0
-6 -55 -203 0
7 55 231 0
-7 -55 -231 0
8 55 259 0
-8 -55 -259 0
1 56 64 0
-1 -56 -64 0
2 56 92 0
-2 -56 -92 0
3 56 120 0
-3 -56 -120 0
4 56 148 0
-4 -56 -148 0
5 56 176 0
-5 -56 -176 0
6 56 204 0
-6 -56 -204 0
7 56 232 0
-7 -56 -232 0
8 56 260 0
-8 -56 -260 0
1 57 65 0
-1 -57 -65 0
2 57 93 0
-2 -57 -93 0
3 57 121 0
-3 -57 -121 0
4 57 149 0
-4 -57 -149 0
5 57 177 0
-5 -57 -177 0
6 57 205 0
-6 -57 -205 0
7 57 233 0
-7 -57 -233 0
8 57 261 0
-8 -57 -261 0
1 58 66 0
-1 -58 -66 0
2 58 94 0
-2 -58 -94 0
3 58 122 0
-3 -58 -122 0
4 58 150 0
-4 -58 -150 0
5 58 178 0
-5 -58 -178 0
6 58 206 0
-6 -58 -206 0
7 58 234 0
-7 -58 -234 0
8 58 262 0
-8 -58 -262 0
1 59 67 0
-1 -59 -67 0
2 59 95 0
-2 -59 -95 0
3 59 123 0
-3 -59 -123 0
4 59 151 0
-4 -59 -151 0
5 59 179 0
-5 -59 -179 0
6 59 207 0
-6 -59 -207 0
7 59 235 0
-7 -59 -235 0
8 59 263 0
-8 -59 -263 0
1 60 68 0
-1 -60 -68 0
2 60 96 0
-2 -60 -96 0
3 60 124 0
-3 -60 -124 0
4 60 152 0
-4 -60 -152 0
5 60 180 0
-5 -60 -180 0
6 60 208 0
-6 -60 -208 0
7 60 236 0
-7 -60 -236 0
8 60 264 0
-8 -60 -264 0
1 61 69 0
-1 -61 -69 0
2 61 97 0
-2 -61 -97 0
3 61 125 0
-3 -61 -125 0
4 61 153 0
-4 -61 -153 0
5 61 181 0
-5 -61 -181 0
6 61 209 0
-6 -61 -209 0
7 61 237 0
-7 -61 -237 0
8 61 265 0
-8 -61 -265 0
1 62 70 0
-1 -62 -70 0
2 62 98 0
-2 -62 -98 0
3 62 126 0
-3 -62 -126 0
4 62 154 0
-4 -62 -154 0
5 62 182 0
-5 -62 -182 0
6 62 210 0
-6 -62 -210 0
7 62 238 0
-7 -62 -238 0
8 62 266 0
-8 -62 -266 0
1 63 71 0
-1 -63 -71 0
2 63 99 0
-2 -63 -99 0
3 63 127 0
-3 -63 -127 0
4 63 155 0
-4 -63 -155 0
5 63 183 0
-5 -63 -183 0
6 63 211 0
-6 -63 -211 0
7 63 239 0
-7 -63 -239 0
8 63 267 0
-8 -63 -267 0
1 64 72 0
-1 -64 -72 0
2 64 100 0
-2 -64 -100 0
3 64 128 0
-3 -64 -128 0
4 64 156 0
-4 -64 -156 0
5 64 184 0
-5 -64 -184 0
6 64 212 0
-6 -64 -212 0
7 64 240 0
-7 -64 -240 0
8 64 268 0
-8 -64 -268 0
1 65 73 0
-1 -65 -73 0
2 65 101 0
-2 -65 -101 0
3 65 129 0
-3 -65 -129 0
4 65 157 0
-4 -65 -157 0
5 65 185 0
-5 -65 -185 0
6 65 213 0
-6 -65 -213 0
7 65 241 0
-7 -65 -241 0
8 65 269 0
-8 -65 -269 0
1 66 74 0
-1 -66 -74 0
2 66 102 0
-2 -66 -102 0
3 66 130 0
-3 -66 -130 0
4 66 158 0
-4 -66 -158 0
5 66 186 0
-5 -66 -186 0
6 66 214 0
-6 -66 -214 0
7 66 242 0
-7 -66 -242 0
1 67 75 0
-1 -67 -75 0
2 67 103 0
-2 -67 -103 0
3 67 131 0
-3 -67 -131 0
4 67 159 0
-4 -67 -159 0
5 67 187 0
-5 -67 -187 0
6 67 215 0
-6 -67 -215 0
7 67 243 0
-7 -67 -243 0
1 68 76 0
-1 -68 -76 0
2 68 104 0
-2 -68 -104 0
3 68 132 0
-3 -68 -132 0
4 68 160 0
-4 -68 -160 0
5 68 188 0
-5 -68 -188 0
6 68 216 0
-6 -68 -216 0
7 68 244 0
-7 -68 -244 0
1 69 77 0
-1 -69 -77 0
2 69 105 0
-2 -69 -105 0
3 69 133 0
-3 -69 -133 0
4 69 161 0
-4 -69 -161 0
5 69 189 0
-5 -69 -189 0
6 69 217 0
-6 -69 -217 0
7 69 245 0
-7 -69 -245 0
1 70 78 0
-1 -70 -78 0
2 70 106 0
-2 -70 -106 0
3 70 134 0
-3 -70 -134 0
4 70 162 0
-4 -70 -162 0
5 70 190 0
-5 -70 -190 0
6 70 218 0
-6 -70 -218 0
7 70 246 0
-7 -70 -246 0
1 71 79 0
-1 -71 -79 0
2 71 107 0
-2 -71 -107 0
3 71 135 0
-3 -71 -135 0
4 71 163 0
-4 -71 -163 0
5 71 191 0
-5 -71 -191 0
6 71 219 0
-6 -71 -219 0
7 71 247 0
-7 -71 -247 0
1 72 80 0
-1 -72 -80 0
2 72 108 0
-2 -72 -108 0
3 72 136 0
-3 -72 -136 0
4 72 164 0
-4 -72 -164 0
5 72 192 0
-5 -72 -192 0
6 72 220 0
-6 -72 -220 0
7 72 248 0
-7 -72 -248 0
1 73 81 0
-1 -73 -81 0
2 73 109 0
-2 -73 -109 0
3 73 137 0
-3 -73 -137 0
4 73 165 0
-4 -73 -165 0
5 73 193 0
-5 -73 -193 0
6 73 221 0
-6 -73 -221 0
7 73 249 0
-7 -73 -249 0
1 74 82 0
-1 -74 -82 0
2 74 110 0
-2 -74 -110 0
3 74 138 0
-3 -74 -138 0
4 74 166 0
-4 -74 -166 0
5 74 194 0
-5 -74 -194 0
6 74 222 0
-6 -74 -222 0
7 74 250 0
-7 -74 -250 0
1 75 83 0
-1 -75 -83 0
2 75 111 0
-2 -75 -111 0
3 75 139 0
-3 -75 -139 0
4 75 167 0
-4 -75 -167 0
5 75 195 0
-5 -75 -195 0
6 75 223 0
-6 -75 -223 0
7 75 251 0
-7 -75 -251 0
1 76 84 0
-1 -76 -84 0
2 76 112 0
-2 -76 -112 0
3 76 140 0
-3 -76 -140 0
4 76 168 0
-4 -76 -168 0
5 76 196 0
-5 -76 -196 0
6 76 224 0
-6 -76 -224 0
7 76 252 0
-7 -76 -252 0
1 77 85 0
-1 -77 -85 0
2 77 113 0
-2 -77 -113 0
3 77 141 0
-3 -77 -141 0
4 77 169 0
-4 -77 -169 0
5 77 197 0
-5 -77 -197 0
6 77 225 0
-6 -77 -225 0
7 77 253 0
-7 -77 -253 0
1 78 86 0
-1 -78 -86 0
2 78 114 0
-2 -78 -114 0
3 78 142 0
-3 -78 -142 0
4 78 170 0
-4 -78 -170 0
5 78 198 0
-5 -78 -198 0
6 78 226 0
-6 -78 -226 0
7 78 254 0
-7 -78 -254 0
1 79 87 0
-1 -79 -87 0
2 79 115 0
-2 -79 -115 0
3 79 143 0
-3 -79 -143 0
4 79 171 0
-4 -79 -171 0
5 79 199 0
-5 -79 -199 0
6 79 227 0
-6 -79 -227 0
7 79 255 0
-7 -79 -255 0
1 80 88 0
-1 -80 -88 0
2 80 116 0
-2 -80 -116 0
3 80 144 0
-3 -80 -144 0
4 80 172 0
-4 -80 -172 0
5 80 200 0
-5 -80 -200 0
6 80 228 0
-6 -80 -228 0
7 80 256 0
-7 -80 -256 0
1 81 89 0
-1 -81 -89 0
2 81 117 0
-2 -81 -117 0
3 81 145 0
-3 -81 -145 0
4 81 173 0
-4 -81 -173 0
5 81 201 0
-5 -81 -201 0
6 81 229 0
-6 -81 -229 0
7 81 257 0
-7 -81 -257 0
1 82 90 0
-1 -82 -90 0
2 82 118 0
-2 -82 -118 0
3 82 146 0
-3 -82 -146 0
4 82 174 0
-4 -82 -174 0
5 82 202 0
-5 -82 -202 0
6 82 230 0
-6 -82 -230 0
7 82 258 0
-7 -82 -258 0
1 83 91 0
-1 -83 -91 0
2 83 119 0
-2 -83 -119 0
3 83 147 0
-3 -83 -147 0
4 83 175 0
-4 -83 -175 0
5 83 203 0
-5 -83 -203 0
6 83 231 0
-6 -83 -231 0
7 83 259 0
-7 -83 -259 0
1 84 92 0
-1 -84 -92 0
2 84 120 0
-2 -84 -120 0
3 84 148 0
-3 -84 -148 0
4 84 176 0
-4 -84 -176 0
5 84 204 0
-5 -84 -204 0
6 84 232 0
-6 -84 -232 0
7 84 260 0
-7 -84 -260 0
1 85 93 0
-1 -85 -93 0
2 85 121 0
-2 -85 -121 0
3 85 149 0
-3 -85 -149 0
4 85 177 0
-4 -85 -177 0
5 85 205 0
-5 -85 -205 0
6 85 233 0
-6 -85 -233 0
7 85 261 0
-7 -85 -261 0
1 86 94 0
-1 -86 -94 0
2 86 122 0
-2 -86 -122 0
3 86 150 0
-3 -86 -150 0
4 86 178 0
-4 -86 -178 0
5 86 206 0
-5 -86 -206 0
6 86 234 0
-6 -86 -234 0
7 86 262 0
-7 -86 -262 0
1 87 95 0
-1 -87 -95 0
2 87 123 0
-2 -87 -123 0
3 87 151 0
-3 -87 -151 0
4 87 179 0
-4 -87 -179 0
5 87 207 0
-5 -87 -207 0
6 87 235 0
-6 -87 -235 0
7 87 263 0
-7 -87 -263 0
1 88 96 0
-1 -88 -96 0
2 88 124 0
-2 -88 -124 0
3 88 152 0
-3 -88 -152 0
4 88 180 0
-4 -88 -180 0
5 88 208 0
-5 -88 -208 0
6 88 236 0
-6 -88 -236 0
7 88 264 0
-7 -88 -264 0
1 89 97 0
-1 -89 -97 0
2 89 125 0
-2 -89 -125 0
3 89 153 0
-3 -89 -153 0
4 89 181 0
-4 -89 -181 0
5 89 209 0
-5 -89 -209 0
6 89 237 0
-6 -89 -237 0
7 89 265 0
-7 -89 -265 0
1 90 98 0
-1 -90 -98 0
2 90 126 0
-2 -90 -126 0
3 90 154 0
-3 -90 -154 0
4 90 182 0
-4 -90 -182 0
5 90 210 0
-5 -90 -210 0
6 90 238 0
-6 -90 -238 0
7 90 266 0
-7 -90 -266 0
1 91 99 0
-1 -91 -99 0
2 91 127 0
-2 -91 -127 0
3 91 155 0
-3 -91 -155 0
4 91 183 0
-4 -91 -183 0
5 91 211 0
-5 -91 -211 0
6 91 239 0
-6 -91 -239 0
7 91 267 0
-7 -91 -267 0
1 92 100 0
-1 -92 -100 0
2 92 128 0
-2 -92 -128 0
3 92 156 0
-3 -92 -156 0
4 92 184 0
-4 -92 -184 0
5 92 212 0
-5 -92 -212 0
6 92 240 0
-6 -92 -240 0
7 92 268 0
-7 -92 -268 0
1 93 101 0
-1 -93 -101 0
2 93 129 0
-2 -93 -129 0
3 93 157 0
-3 -93 -157 0
4 93 185 0
-4 -93 -185 0
5 93 213 0
-5 -93 -213 0
6 93 241 0
-6 -93 -241 0
7 93 269 0
-7 -93 -269 0
1 94 102 0
-1 -94 -102 0
2 94 130 0
-2 -94 -130 0
3 94 158 0
-3 -94 -158 0
4 94 186 0
-4 -94 -186 0
5 94 214 0
-5 -94 -214 0
6 94 242 0
-6 -94 -242 0
1 95 103 0
-1 -95 -103 0
2 95 131 0
-2 -95 -131 0
3 95 159 0
-3 -95 -159 0
4 95 187 0
-4 -95 -187 0
5 95 215 0
-5 -95 -215 0
6 95 243 0
-6 -95 -243 0
1 96 104 0
-1 -96 -104 0
2 96 132 0
-2 -96 -132 0
3 96 160 0
-3 -96 -160 0
4 96 188 0
-4 -96 -188 0
5 96 216 0
-5 -96 -216 0
6 96 244 0
-6 -96 -244 0
1 97 105 0
-1 -97 -105 0
2 97 133 0
-2 -97 -133 0
3 97 161 0
-3 -97 -161 0
4 97 189 0
-4 -97 -189 0
5 97 217 0
-5 -97 -217 0
6 97 245 0
-6 -97 -245 0
1 98 106 0
-1 -98 -106 0
2 98 134 0
-2 -98 -134 0
3 98 162 0
-3 -98 -162 0
4 98 190 0
-4 -98 -190 0
5 98 218 0
-5 -98 -218 0
6 98 246 0
-6 -98 -246 0
1 99 107 0
-1 -99 -107 0
2 99 135 0
-2 -99 -135 0
3 99 163 0
-3 -99 -163 0
4 99 191 0
-4 -99 -191 0
5 99 219 0
-5 -99 -219 0
6 99 247 0
-6 -99 -247 0
1 100 108 0
-1 -100 -108 0
2 100 136 0
-2 -100 -136 0
3 100 164 0
-3 -100 -164 0
4 100 192 0
-4 -100 -192 0
5 100 220 0
-5 -100 -220 0
6 100 248 0
-6 -100 -248 0
1 101 109 0
-1 -101 -109 0
2 101 137 0
-2 -101 -137 0
3 101 165 0
-3 -101 -165 0
4 101 193 0
-4 -101 -193 0
5 101 221 0
-5 -101 -221 0
6 101 249 0
-6 -101 -249 0
1 102 110 0
-1 -102 -110 0
2 102 138 0
-2 -102 -138 0
3 102 166 0
-3 -102 -166 0
4 102 194 0
-4 -102 -194 0
5 102 222 0
-5 -102 -222 0
6 102 250 0
-6 -102 -250 0
1 103 111 0
-1 -103 -111 0
2 103 139 0
-2 -103 -139 0
3 103 167 0
-3 -103 -167 0
4 103 195 0
-4 -103 -195 0
5 103 223 0
-5 -103 -223 0
6 103 251 0
-6 -103 -251 0
1 104 112 0
-1 -104 -112 0
2 104 140 0
-2 -104 -140 0
3 104 168 0
-3 -104 -168 0
4 104 196 0
-4 -104 -196 0
5 104 224 0
-5 -104 -224 0
6 104 252 0
-6 -104 -252 0
1 105 113 0
-1 -105 -113 0
2 105 141 0
-2 -105 -141 0
3 105 169 0
-3 -105 -169 0
4 105 197 0
-4 -105 -197 0
5 105 225 0
-5 -105 -225 0
6 105 253 0
-6 -105 -253 0
1 106 114 0
-1 -106 -114 0
2 106 142 0
-2 -106 -142 0
3 106 170 0
-3 -106 -170 0
4 106 198 0
-4 -106 -198 0
5 106 226 0
-5 -106 -226 0
6 106 254 0
-6 -106 -254 0
1 107 115 0
-1 -107 -115 0
2 107 143 0
-2 -107 -143 0
3 107 171 0
-3 -107 -171 0
4 107 199 0
-4 -107 -199 0
5 107 227 0
-5 -107 -227 0
6 107 255 0
-6 -107 -255 0
1 108 116 0
-1 -108 -116 0
2 108 144 0
-2 -108 -144 0
3 108 172 0
-3 -108 -172 0
4 108 200 0
-4 -108 -200 0
5 108 228 0
-5 -108 -228 0
6 108 256 0
-6 -108 -256 0
1 109 117 0
-1 -109 -117 0
2 109 145 0
-2 -109 -145 0
3 109 173 0
-3 -109 -173 0
4 109 201 0
-4 -109 -201 0
5 109 229 0
-5 -109 -229 0
6 109 257 0
-6 -109 -257 0
1 110 118 0
-1 -110 -118 0
2 110 146 0
-2 -110 -146 0
3 110 174 0
-3 -110 -174 0
4 110 202 0
-4 -110 -202 0
5 110 230 0
-5 -110 -230 0
6 110 258 0
-6 -110 -258 0
1 111 119 0
-1 -111 -119 0
2 111 147 0
-2 -111 -147 0
3 111 175 0
-3 -111 -175 0
4 111 203 0
-4 -111 -203 0
5 111 231 0
-5 -111 -231 0
6 111 259 0
-6 -111 -259 0
1 112 120 0
-1 -112 -120 0
2 112 148 0
-2 -112 -148 0
3 112 176 0
-3 -112 -176 0
4 112 204 0
-4 -112 -204 0
5 112 232 0
-5 -112 -232 0
6 112 260 0
-6 -112 -260 0
1 113 121 0
-1 -113 -121 0
2 113 149 0
-2 -113 -149 0
3 113 177 0
-3 -113 -177 0
4 113 205 0
-4 -113 -205 0
5 113 233 0
-5 -113 -233 0
6 113 261 0
-6 -113 -261 0
1 114 122 0
-1 -114 -122 0
2 114 150 0
-2 -114 -150 0
3 114 178 0
-3 -114 -178 0
4 114 206 0
-4 -114 -206 0
5 114 234 0
-5 -114 -234 0
6 114 262 0
-6 -114 -262 0
1 115 123 0
-1 -115 -123 0
2 115 151 0
-2 -115 -151 0
3 115 179 0
-3 -115 -179 0
4 115 207 0
-4 -115 -207 0
5 115 235 0
-5 -115 -235 0
6 115 263 0
-6 -115 -263 0
1 116 124 0
-1 -116 -124 0
2 116 152 0
-2 -116 -152 0
3 116 180 0
-3 -116 -180 0
4 116 208 0
-4 -116 -208 0
5 116 236 0
-5 -116 -236 0
6 116 264 0
-6 -116 -264 0
1 117 125 0
-1 -117 -125 0
2 117 153 0
-2 -117 -153 0
3 117 181 0
-3 -117 -181 0
4 117 209 0
-4 -117 -209 0
5 117 237 0
-5 -117 -237 0
6 117 265 0
-6 -117 -265 0
1 118 126 0
-1 -118 -126 0
2 118 154 0
-2 -118 -154 0
3 118 182 0
-3 -118 -182 0
4 118 210 0
-4 -118 -210 0
5 118 238 0
-5 -118 -238 0
6 118 266 0
-6 -118 -266 0
1 119 127 0
-1 -119 -127 0
2 119 155 0
-2 -119 -155 0
3 119 183 0
-3 -119 -183 0
4 119 211 0
-4 -119 -211 0
5 119 239 0
-5 -119 -239 0
6 119 267 0
-6 -119 -267 0
1 120 128 0
-1 -120 -128 0
2 120 156 0
-2 -120 -156 0
3 120 184 0
-3 -120 -184 0
4 120 212 0
-4 -120 -212 0
5 120 240 0
-5 -120 -240 0
6 120 268 0
-6 -120 -268 0
1 121 129 0
-1 -121 -129 0
2 121 157 0
-2 -121 -157 0
3 121 185 0
-3 -121 -185 0
4 121 213 0
-4 -121 -213 0
5 121 241 0
-5 -121 -241 0
6 121 269 0
-6 -121 -269 0
1 122 130 0
-1 -122 -130 0
2 122 158 0
-2 -122 -158 0
3 122 186 0
-3 -122 -186 0
4 122 214 0
-4 -122 -214 0
5 122 242 0
-5 -122 -242 0
1 123 131 0
-1 -123 -131 0
2 123 159 0
-2 -123 -159 0
3 123 187 0
-3 -123 -187 0
4 123 215 0
-4 -123 -215 0
5 123 243 0
-5 -123 -243 0
1 124 132 0
-1 -124 -132 0
2 124 160 0
-2 -124 -160 0
3 124 188 0
-3 -124 -188 0
4 124 216 0
-4 -124 -216 0
5 124 244 0
-5 -124 -244 0
1 125 133 0
-1 -125 -133 0
2 125 161 0
-2 -125 -161 0
3 125 189 0
-3 -125 -189 0
4 125 217 0
-4 -125 -217 0
5 125 245 0
-5 -125 -245 0
1 126 134 0
-1 -126 -134 0
2 126 162 0
-2 -126 -162 0
3 126 190 0
-3 -126 -190 0
4 126 218 0
-4 -126 -218 0
5 126 246 0
-5 -126 -246 0
1 127 135 0
-1 -127 -135 0
2 127 163 0
-2 -127 -163 0
3 127 191 0
-3 -127 -191 0
4 127 219 0
-4 -127 -219 0
5 127 247 0
-5 -127 -247 0
1 128 136 0
-1 -128 -136 0
2 128 164 0
-2 -128 -164 0
3 128 192 0
-3 -128 -192 0
4 128 220 0
-4 -128 -220 0
5 128 248 0
-5 -128 -248 0
1 129 137 0
-1 -129 -137 0
2 129 165 0
-2 -129 -165 0
3 129 193 0
-3 -129 -193 0
4 129 221 0
-4 -129 -221 0
5 129 249 0
-5 -129 -249 0
1 130 138 0
-1 -130 -138 0
2 130 166 0
-2 -130 -166 0
3 130 194 0
-3 -130 -194 0
4 130 222 0
-4 -130 -222 0
5 130 250 0
-5 -130 -250 0
1 131 139 0
-1 -131 -139 0
2 131 167 0
-2 -131 -167 0
3 131 195 0
-3 -131 -195 0
4 131 223 0
-4 -131 -223 0
5 131 251 0
-5 -131 -251 0
1 132 140 0
-1 -132 -140 0
2 132 168 0
-2 -132 -168 0
3 132 196 0
-3 -132 -196 0
4 132 224 0
-4 -132 -224 0
5 132 252 0
-5 -132 -252 0
1 133 141 0
-1 -133 -141 0
2 133 169 0
-2 -133 -169 0
3 133 197 0
-3 -133 -197 0
4 133 225 0
-4 -133 -225 0
5 133 253 0
-5 -133 -253 0
1 134 142 0
-1 -134 -142 0
2 134 170 0
-2 -134 -170 0
3 134 198 0
-3 -134 -198 0
4 134 226 0
-4 -134 -226 0
5 134 254 0
-5 -134 -254 0
1 135 143 0
-1 -135 -143 0
2 135 171 0
-2 -135 -171 0
3 135 199 0
-3 -135 -199 0
4 135 227 0
-4 -135 -227 0
5 135 255 0
-5 -135 -255 0
1 136 144 0
-1 -136 -144 0
2 136 172 0
-2 -136 -172 0
3 136 200 0
-3 -136 -200 0
4 136 228 0
-4 -136 -228 0
5 136 256 0
-5 -136 -256 0
1 137 145 0
-1 -137 -145 0
2 137 173 0
-2 -137 -173 0
3 137 201 0
-3 -137 -201 0
4 137 229 0
-4 -137 -229 0
5 137 257 0
-5 -137 -257 0
1 138 146 0
-1 -138 -146 0
2 138 174 0
-2 -138 -174 0
3 138 202 0
-3 -138 -202 0
4 138 230 0
-4 -138 -230 0
5 138 258 0
-5 -138 -258 0
1 139 147 0
-1 -139 -147 0
2 139 175 0
-2 -139 -175 0
3 139 203 0
-3 -139 -203 0
4 139 231 0
-4 -139 -231 0
5 139 259 0
-5 -139 -259 0
1 140 148 0
-1 -140 -148 0
2 140 176 0
-2 -140 -176 0
3 140 204 0
-3 -140 -204 0
4 140 232 0
-4 -140 -232 0
5 140 260 0
-5 -140 -260 0
1 141 149 0
-1 -141 -149 0
2 141 177 0
-2 -141 -177 0
3 141 205 0
-3 -141 -205 0
4 141 233 0
-4 -141 -233 0
5 141 261 0
-5 -141 -261 0
1 142 150 0
-1 -142 -150 0
2 142 178 0
-2 -142 -178 0
3 142 206 0
-3 -142 -206 0
4 142 234 0
-4 -142 -234 0
5 142 262 0
-5 -142 -262 0
1 143 151 0
-1 -143 -151 0
2 143 179 0
-2 -143 -179 0
3 143 207 0
-3 -143 -207 0
4 143 235 0
-4 -143 -235 0
5 143 263 0
-5 -143 -263 0
1 144 152 0
-1 -144 -152 0
2 144 180 0
-2 -144 -180 0
3 144 208 0
-3 -144 -208 0
4 144 236 0
-4 -144 -236 0
5 144 264 0
-5 -144 -264 0
1 145 153 0
-1 -145 -153 0
2 145 181 0
-2 -145 -181 0
3 145 209 0
-3 -145 -209 0
4 145 237 0
-4 -145 -237 0
5 145 265 0
-5 -145 -265 0
1 146 154 0
-1 -146 -154 0
2 146 182 0
-2 -146 -182 0
3 146 210 0
-3 -146 -210 0
4 146 238 0
-4 -146 -238 0
5 146 266 0
-5 -146 -266 0
1 147 155 0
-1 -147 -155 0
2 147 183 0
-2 -147 -183 0
3 147 211 0
-3 -147 -211 0
4 147 239 0
-4 -147 -239 0
5 147 267 0
-5 -147 -267 0
1 148 156 0
-1 -148 -156 0
2 148 184 0
-2 -148 -184 0
3 148 212 0
-3 -148 -212 0
4 148 240 0
-4 -148 -240 0
5 148 268 0
-5 -148 -268 0
1 149 157 0
-1 -149 -157 0
2 149 185 0
-2 -149 -185 0
3 149 213 0
-3 -149 -213 0
4 149 241 0
-4 -149 -241 0
5 149 269 0
-5 -149 -269 0
1 150 158 0
-1 -150 -158 0
2 150 186 0
-2 -150 -186 0
3 150 214 0
-3 -150 -214 0
4 150 242 0
-4 -150 -242 0
1 151 159 0
-1 -151 -159 0
2 151 187 0
-2 -151 -187 0
3 151 215 0
-3 -151 -215 0
4 151 243 0
-4 -151 -243 0
1 152 160 0
-1 -152 -160 0
2 152 188 0
-2 -152 -188 0
3 152 216 0
-3 -152 -216 0
4 152 244 0
-4 -152 -244 0
1 153 161 0
-1 -153 -161 0
2 153 189 0
-2 -153 -189 0
3 153 217 0
-3 -153 -217 0
4 153 245 0
-4 -153 -245 0
1 154 162 0
-1 -154 -162 0
2 154 190 0
-2 -154 -190 0
3 154 218 0
-3 -154 -218 0
4 154 246 0
-4 -154 -246 0
1 155 163 0
-1 -155 -163 0
2 155 191 0
-2 -155 -191 0
3 155 219 0
-3 -155 -219 0
4 155 247 0
-4 -155 -247 0
1 156 164 0
-1 -156 -164 0
2 156 192 0
-2 -156 -192 0
3 156 220 0
-3 -156 -220 0
4 156 248 0
-4 -156 -248 0
1 157 165 0
-1 -157 -165 0
2 157 193 0
-2 -157 -193 0
3 157 221 0
-3 -157 -221 0
4 157 249 0
-4 -157 -249 0
1 158 166 0
-1 -158 -166 0
2 158 194 0
-2 -158 -194 0
3 158 222 0
-3 -158 -222 0
4 158 250 0
-4 -158 -250 0
1 159 167 0
-1 -159 -167 0
2 159 195 0
-2 -159 -195 0
3 159 223 0
-3 -159 -223 0
4 159 251 0
-4 -159 -251 0
1 160 168 0
-1 -160 -168 0
2 160 196 0
-2 -160 -196 0
3 160 224 0
-3 -160 -224 0
4 160 252 0
-4 -160 -252 0
1 161 169 0
-1 -161 -169 0
2 161 197 0
-2 -161 -197 0
3 161 225 0
-3 -161 -225 0
4 161 253 0
-4 -161 -253 0
1 162 170 0
-1 -162 -170 0
2 162 198 0
-2 -162 -198 0
3 162 226 0
-3 -162 -226 0
4 162 254 0
-4 -162 -254 0
1 163 171 0
-1 -163 -171 0
2 163 199 0
-2 -163 -199 0
3 163 227 0
-3 -163 -227 0
4 163 255 0
-4 -163 -255 0
1 164 172 0
-1 -164 -172 0
2 164 200 0
-2 -164 -200 0
3 164 228 0
-3 -164 -228 0
4 164 256 0
-4 -164 -256 0
1 165 173 0
-1 -165 -173 0
2 165 201 0
-2 -165 -201 0
3 165 229 0
-3 -165 -229 0
4 165 257 0
-4 -165 -257 0
1 166 174 0
-1 -166 -174 0
2 166 202 0
-2 -166 -202 0
3 166 230 0
-3 -166 -230 0
4 166 258 0
-4 -166 -258 0
1 167 175 0
-1 -167 -175 0
2 167 203 0
-2 -167 -203 0
3 167 231 0
-3 -167 -231 0
4 167 259 0
-4 -167 -259 0
1 168 176 0
-1 -168 -176 0
2 168 204 0
-2 -168 -204 0
3 168 232 0
-3 -168 -232 0
4 168 260 0
-4 -168 -260 0
1 169 177 0
-1 -169 -177 0
2 169 205 0
-2 -169 -205 0
3 169 233 0
-3 -169 -233 0
4 169 261 0
-4 -169 -261 0
1 170 178 0
-1 -170 -178 0
2 170 206 0
-2 -170 -206 0
3 170 234 0
-3 -170 -234 0
4 170 262 0
-4 -170 -262 0
1 171 179 0
-1 -171 -179 0
2 171 207 0
-2 -171 -207 0
3 171 235 0
-3 -171 -235 0
4 171 263 0
-4 -171 -263 0
1 172 180 0
-1 -172 -180 0
2 172 208 0
-2 -172 -208 0
3 172 236 0
-3 -172 -236 0
4 172 264 0
-4 -172 -264 0
1 173 181 0
-1 -173 -181 0
2 173 209 0
-2 -173 -209 0
3 173 237 0
-3 -173 -237 0
4 173 265 0
-4 -173 -265 0
1 174 182 0
-1 -174 -182 0
2 174 210 0
-2 -174 -210 0
3 174 238 0
-3 -174 -238 0
4 174 266 0
-4 -174 -266 0
1 175 183 0
-1 -175 -183 0
2 175 211 0
-2 -175 -211 0
3 175 239 0
-3 -175 -239 0
4 175 267 0
-4 -175 -267 0
1 176 184 0
-1 -176 -184 0
2 176 212 0
-2 -176 -212 0
3 176 240 0
-3 -176 -240 0
4 176 268 0
-4 -176 -268 0
1 177 185 0
-1 -177 -185 0
2 177 213 0
-2 -177 -213 0
3 177 241 0
-3 -177 -241 0
4 177 269 0
-4 -177 -269 0
1 178 186 0
-1 -178 -186 0
2 178 214 0
-2 -178 -214 0
3 178 242 0
-3 -178 -242 0
1 179 187 0
-1 -179 -187 0
2 179 215 0
-2 -179 -215 0
3 179 243 0
-3 -179 -243 0
1 180 188 0
-1 -180 -188 0
2 180 216 0
-2 -180 -216 0
3 180 244 0
-3 -180 -244 0
1 181 189 0
-1 -181 -189 0
2 181 217 0
-2 -181 -217 0
3 181 245 0
-3 -181 -245 0
1 182 190 0
-1 -182 -190 0
2 182 218 0
-2 -182 -218 0
3 182 246 0
-3 -182 -246 0
1 183 191 0
-1 -183 -191 0
2 183 219 0
-2 -183 -219 0
3 183 247 0
-3 -183 -247 0
1 184 192 0
-1 -184 -192 0
2 184 220 0
-2 -184 -220 0
3 184 248 0
-3 -184 -248 0
1 185 193 0
-1 -185 -193 0
2 185 221 0
-2 -185 -221 0
3 185 249 0
-3 -185 -249 0
1 186 194 0
-1 -186 -194 0
2 186 222 0
-2 -186 -222 0
3 186 250 0
-3 -186 -250 0
1 187 195 0
-1 -187 -195 0
2 187 223 0
-2 -187 -223 0
3 187 251 0
-3 -187 -251 0
1 188 196 0
-1 -188 -196 0
2 188 224 0
-2 -188 -224 0
3 188 252 0
-3 -188 -252 0
1 189 197 0
-1 -189 -197 0
2 189 225 0
-2 -189 -225 0
3 189 253 0
-3 -189 -253 0
1 190 198 0
-1 -190 -198 0
2 190 226 0
-2 -190 -226 0
3 190 254 0
-3 -190 -254 0
1 191 199 0
-1 -191 -199 0
2 191 227 0
-2 -191 -227 0
3 191 255 0
-3 -191 -255 0
1 192 200 0
-1 -192 -200 0
2 192 228 0
-2 -192 -228 0
3 192 256 0
-3 -192 -256 0
1 193 201 0
-1 -193 -201 0
2 193 229 0
-2 -193 -229 0
3 193 257 0
-3 -193 -257 0
1 194 202 0
-1 -194 -202 0
2 194 230 0
-2 -194 -230 0
3 194 258 0
-3 -194 -258 0
1 195 203 0
-1 -195 -203 0
2 195 231 0
-2 -195 -231 0
3 195 259 0
-3 -195 -259 0
1 196 204 0
-1 -196 -204 0
2 196 232 0
-2 -196 -232 0
3 196 260 0
-3 -196 -260 0
1 197 205 0
-1 -197 -205 0
2 197 233 0
-2 -197 -233 0
3 197 261 0
-3 -197 -261 0
1 198 206 0
-1 -198 -206 0
2 198 234 0
-2 -198 -234 0
3 198 262 0
-3 -198 -262 0
1 199 207 0
-1 -199 -207 0
2 199 235 0
-2 -199 -235 0
3 199 263 0
-3 -199 -263 0
1 200 208 0
-1 -200 -208 0
2 200 236 0
-2 -200 -236 0
3 200 264 0
-3 -200 -264 0
1 201 209 0
-1 -201 -209 0
2 201 237 0
-2 -201 -237 0
3 201 265 0
-3 -201 -265 0
1 202 210 0
-1 -202 -210 0
2 202 238 0
-2 -202 -238 0
3 202 266 0
-3 -202 -266 0
1 203 211 0
-1 -203 -211 0
2 203 239 0
-2 -203 -239 0
3 203 267 0
-3 -203 -267 0
1 204 212 0
-1 -204 -212 0
2 204 240 0
-2 -204 -240 0
3 204 268 0
-3 -204 -268 0
1 205 213 0
-1 -205 -213 0
2 205 241 0
-2 -205 -241 0
3 205 269 0
-3 -205 -269 0
1 206 214 0
-1 -206 -214 0
2 206 242 0
-2 -206 -242 0
1 207 215 0
-1 -207 -215 0
2 207 243 0
-2 -207 -243 0
1 208 216 0
-1 -208 -216 0
2 208 244 0
-2 -208 -244 0
1 209 217 0
-1 -209 -217 0
2 209 245 0
-2 -209 -245 0
1 210 218 0
-1 -210 -218 0
2 210 246 0
-2 -210 -246 0
1 211 219 0
-1 -211 -219 0
2 211 247 0
-2 -211 -247 0
1 212 220 0
-1 -212 -220 0
2 212 248 0
-2 -212 -248 0
1 213 221 0
-1 -213 -221 0
2 213 249 0
-2 -213 -249 0
1 214 222 0
-1 -214 -222 0
2 214 250 0
-2 -214 -250 0
1 215 223 0
-1 -215 -223 0
2 215 251 0
-2 -215 -251 0
1 216 224 0
-1 -216 -224 0
2 216 252 0
-2 -216 -252 0
1 217 225 0
-1 -217 -225 0
2 217 253 0
-2 -217 -253 0
1 218 226 0
-1 -218 -226 0
2 218 254 0
-2 -218 -254 0
1 219 227 0
-1 -219 -227 0
2 219 255 0
-2 -219 -255 0
1 220 228 0
-1 -220 -228 0
2 220 256 0
-2 -220 -256 0
1 221 229 0
-1 -221 -229 0
2 221 257 0
-2 -221 -257 0
1 222 230 0
-1 -222 -230 0
2 222 258 0
-2 -222 -258 0
1 223 231 0
-1 -223 -231 0
2 223 259 0
-2 -223 -259 0
1 224 232 0
-1 -224 -232 0
2 224 260 0
-2 -224 -260 0
1 225 233 0
-1 -225 -233 0
2 225 261 0
-2 -225 -261 0
1 226 234 0
-1 -226 -234 0
2 226 262 0
-2 -226 -262 0
1 227 235 0
-1 -227 -235 0
2 227 263 0
-2 -227 -263 0
1 228 236 0
-1 -228 -236 0
2 228 264 0
-2 -228 -264 0
1 229 237 0
-1 -229 -237 0
2 229 265 0
-2 -229 -265 0
1 230 238 0
-1 -230 -238 0
2 230 266 0
-2 -230 -266 0
1 231 239 0
-1 -231 -239 0
2 231 267 0
-2 -231 -267 0
1 232 240 0
-1 -232 -240 0
2 232 268 0
-2 -232 -268 0
1 233 241 0
-1 -233 -241 0
2 233 269 0
-2 -233 -269 0
1 234 242 0
-1 -234 -242 0
1 235 243 0
-1 -235 -243 0
1 236 244 0
-1 -236 -244 0
1 237 245 0
-1 -237 -245 0
1 238 246 0
-1 -238 -246 0
1 239 247 0
-1 -239 -247 0
1 240 248 0
-1 -240 -248 0
1 241 249 0
-1 -241 -249 0
1 242 250 0
-1 -242 -250 0
1 243 251 0
-1 -243 -251 0
1 244 252 0
-1 -244 -252 0
1 245 253 0
-1 -245 -253 0
1 246 254 0
-1 -246 -254 0
1 247 255 0
-1 -247 -255 0
1 248 256 0
-1 -248 -256 0
1 249 257 0
-1 -249 -257 0
1 250 258 0
-1 -250 -258 0
1 251 259 0
-1 -251 -259 0
1 252 260 0
-1 -252 -260 0
1 253 261 0
-1 -253 -261 0
1 254 262 0
-1 -254 -262 0
1 255 263 0
-1 -255 -263 0
1 256 264 0
-1 -256 -264 0
1 257 265 0
-1 -257 -265 0
1 258 266 0
-1 -258 -266 0
1 259 267 0
-1 -259 -267 0
1 260 268 0
-1 -260 -268 0
1 261 269 0
-1 -261 -269 0
