certificates/rado_a28_c20_N269.drat
-261 -269 0
d -261 -1 -269 0
29 37 261 0
-9 -269 0
-269 0
261 0
9 0
-1 0
-241 0
-29 0
249 0
233 0
37 0
21 0
-17 0
-253 0
25 0
245 0
-257 0
-13 0
265 0
5 0
-33 0
-125 0
-237 0
-10 0
-129 0
-145 0
-157 0
-113 0
-141 0
41 0
133 0
117 0
4 0
229 0
8 0
18 0
2 0
137 0
121 0
153 0
165 0
149 0
105 0
0
